SystemName          biphenylene
SystemLabel         siesta
NumberOfAtoms 24
NumberOfSpecies 1
WriteCoorStep True
%block ChemicalSpeciesLabel
 1  6  C
%endblock ChemicalSpeciesLabel
LatticeConstant       1.0 Ang
%block LatticeVectors
  9.072719  0.0  0.0
  0.0  7.52817  0.0
  0.0  0.0  30.0
%endblock LatticeVectors
AtomicCoordinatesFormat NotScaledCartesianAng
ZM.UnitsLength Ang
%block Zmatrix
cartesian
 1       -1.53643230    3.03773641    0.00659177      1  1  1
 1       -0.72732301    1.88285191    0.00584409      1  1  1
 1       -1.53763394    0.72985885    0.00520545      1  1  1
 1       -1.53674302   -0.72595509    0.00552924      1  1  1
 1       -2.99982192    0.72993533    0.00055496      1  1  1
 1       -2.99938171    3.03785578    0.00188691      1  1  1
 1       -2.99911702   -3.03514476    0.00354236      1  1  1
 1        0.72774316    1.88008356    0.00087336      1  1  1
 1        0.72757346   -1.88353506    0.00166179      1  1  1
 1       -0.72760071   -1.88038062    0.00644663      1  1  1
 1       -2.99969352   -0.72600068    0.00123151      1  1  1
 1       -3.80929515    1.88391784   -0.00375957      1  1  1
 1       -3.80817671   -1.88080468   -0.00195251      1  1  1
 1       -1.53715165   -3.03452054    0.00791561      1  1  1
 1        1.53752673   -0.73031103   -0.00256472      1  1  1
 1        1.53667615    0.72565427   -0.00310928      1  1  1
 1        1.53668128    3.03425030   -0.00313092      1  1  1
 1        1.53674764   -3.03820759   -0.00160585      1  1  1
 1        2.99844963    3.03514299   -0.00619187      1  1  1
 1        2.99955953    0.72665824   -0.00616606      1  1  1
 1        2.99995428   -0.72926479   -0.00533497      1  1  1
 1        2.99976386   -3.03769274   -0.00436677      1  1  1
 1        3.80936026   -1.88309273   -0.00357448      1  1  1
 1        3.80833460    1.88096477   -0.00552659      1  1  1
%endblock Zmatrix
ZM.UnitsLength Ang
WriteMullikenPop    1
PAO.BasisSize  DZP
MeshCutoff       350.0 Ry
SpinPolarized True
MaxSCFIterations       150
SolutionMethod         diagon
NetCharge     0.00
DM.NumberPulay    4
DM.MixingWeight   0.3
DM.UseSaveDM      .true.
NeglNonOverlapInt False
XC.functional=GGA
XC.authors=PBE
ZM.UnitsLength = Ang
WriteCoorXmol     True
WriteForces .true.
WriteMullikenPop     1
MD.TypeOfRun           cg               # Type of dynamics: Conjugate gradients
MD.NumCGsteps          320              # number of CG steps
MD.MaxCGDispl          0.10 Ang
MD.MaxForceTol         0.04 eV/Ang
MD.UseSaveXV           yes
MD.VariableCell        .false.
%block kgrid_Monkhorst_Pack
  3  0  0   0.0
  0  3  0   0.0
  0  0  1   0.0
%endblock kgrid_Monkhorst_Pack
%block ProjectedDensityOfStates
   -24.00  15.00  0.100  1000  eV
%endblock ProjectedDensityOfStates
