SystemName          biphenylene
SystemLabel         siesta
NumberOfAtoms 6
NumberOfSpecies 1
WriteCoorStep True
%block ChemicalSpeciesLabel
 1  6  C
%endblock ChemicalSpeciesLabel
LatticeConstant       1.0 Ang
%block LatticeParameters
  4.441031407111375  3.774950919540656  50.0  90.0  90.0  90.0
%endblock LatticeParameters
AtomicCoordinatesFormat Fractional
%block AtomicCoordinatesAndAtomicSpecies
    0.49464937    0.60374563    0.00000008 1
    0.67384919    0.30188534    0.00000027 1
    0.49463813   -0.00000046    0.00000005 1
    0.17921183    0.00000064    0.00000015 1
    0.17919862    0.60374667    0.00000010 1
   -0.00000015    0.30188604    0.00000000 1
%endblock AtomicCoordinatesAndAtomicSpecies

ZM.UnitsLength Ang
WriteMullikenPop    1
PAO.BasisSize  DZP
MeshCutoff       350.0 Ry
SpinPolarized True
MaxSCFIterations       150
SolutionMethod         diagon
NetCharge     0.00
DM.NumberPulay    4
DM.MixingWeight   0.3
DM.UseSaveDM      .true.
NeglNonOverlapInt False
XC.functional=GGA
XC.authors=PBE
ZM.UnitsLength = Ang
WriteCoorXmol     True
WriteForces .true.
WriteMullikenPop     1
MD.TypeOfRun           cg               # Type of dynamics: Conjugate gradients
MD.NumCGsteps          320              # number of CG steps
MD.MaxCGDispl          0.10 Ang
MD.MaxForceTol         0.04 eV/Ang
MD.UseSaveXV           yes
MD.VariableCell        .false.
%block kgrid_Monkhorst_Pack
  3  0  0   0.0
  0  3  0   0.0
  0  0  1   0.0
%endblock kgrid_Monkhorst_Pack
%block ProjectedDensityOfStates
   -24.00  15.00  0.100  1000  eV
%endblock ProjectedDensityOfStates
