NumberOfAtoms 18
NumberOfSpecies 2
WriteCoorStep True
%block ChemicalSpeciesLabel
 1  6  C
 2  7  N
%endblock ChemicalSpeciesLabel
LatticeConstant       1.0 Ang
%block LatticeVectors
  8.321868  0.0  0.0
  -4.153988  7.210895  0.0
  0.0  0.0  20.0
%endblock LatticeVectors
AtomicCoordinatesFormat Fractional
%block AtomicCoordinatesAndAtomicSpecies
    0.84065479    0.84163738    0.00000001 1
    0.49283341    0.66568900    0.00000001 1
    0.66906385    0.49379808    0.00000001 1
    0.82751963    0.15873420    0.00000001 1
    1.17534639    0.33469238    0.00000001 1
    0.99911033    0.50655682    0.00000001 1
    1.17535179    0.50637578    0.00000001 1
    0.99910851    0.15855458    0.00000001 1
    0.82752529    0.33506474    0.00000001 1
    0.49283185    0.49400592    0.00000001 1
    0.66906403    0.84182448    0.00000001 1
    0.84064541    0.66529268    0.00000001 1
    1.00310247    0.66910180    0.00000003 2
    0.66506057    0.00037238    0.00000001 2
    0.33436503    0.33163166    0.00000001 2
    0.66506873    0.33125602    0.00000000 2
    1.00311397    0.00000000    0.00000001 2
    0.33437893    0.66987610    0.00000001 2
%endblock AtomicCoordinatesAndAtomicSpecies
