NumberOfAtoms 18
NumberOfSpecies 2
WriteCoorStep True
%block ChemicalSpeciesLabel
 1  6  C
 2  14  Si
%endblock ChemicalSpeciesLabel
LatticeConstant       1.0 Ang
%block LatticeParameters
  8.64100042080059  8.641  20.0  90.0  90.0  119.99999838907874
%endblock LatticeParameters
AtomicCoordinatesFormat Fractional
%block AtomicCoordinatesAndAtomicSpecies
    0.42900405    0.73765890    0.00000811 1
    0.42900420    1.02467747    0.00000390 1
    0.47532291    0.40432809    0.00001774 1
    0.66666787    0.50000157    0.00002618 1
    0.76233845    0.69134601    0.00002131 1
    0.80865612    1.07099453    0.00002378 1
    0.00000080    0.16666755    0.00002394 1
    0.76233754    0.40432659    0.00002278 1
    0.14198834    0.73766031    0.00000000 1
    0.33333359    0.83333325    0.00000562 1
    0.09567067    1.07099316    0.00001031 1
    0.09567142    0.35801186    0.00002313 1
    0.66666782    0.83333437    0.00002175 2
    0.66666721    1.16666658    0.00002338 2
    0.00000120    0.83333405    0.00000830 2
    0.00000000    0.49999947    0.00001586 2
    0.33333468    0.16666734    0.00001473 2
    0.33333432    0.49999896    0.00002054 2
%endblock AtomicCoordinatesAndAtomicSpecies
