NumberOfAtoms 18
NumberOfSpecies 2
WriteCoorStep True
%block ChemicalSpeciesLabel
 1  6  C
 2  14  Si
%endblock ChemicalSpeciesLabel
LatticeConstant       1.0 Ang
%block LatticeParameters
  8.691000186809859  8.691  20.0  90.0  90.0  119.99999928896328
%endblock LatticeParameters
AtomicCoordinatesFormat Fractional
%block AtomicCoordinatesAndAtomicSpecies
    0.47062654    0.73531275    0.00002324 1
    0.66666655    0.83333260    0.00002309 1
    0.47062663    0.35207650    0.00002325 1
    0.66666661    0.45009633    0.00000000 1
    0.80395983    1.01874366    0.00004647 1
    0.00000000    1.11676368    0.00006499 1
    0.80396000    0.40198000    0.00001084 1
    0.00000009    0.49999995    0.00002895 1
    0.13729317    0.68540980    0.00005301 1
    0.33333312    0.78342985    0.00005114 1
    0.13729354    1.06864632    0.00008095 1
    0.33333349    1.16666634    0.00006332 1
    0.42706661    1.02191541    0.00007456 2
    0.71022652    1.16349537    0.00003872 2
    0.76039980    0.68858048    0.00000471 2
    0.04356016    0.83016077    0.00007483 2
    0.09373383    0.35524863    0.00003639 2
    0.37689287    0.49682824    0.00000612 2
%endblock AtomicCoordinatesAndAtomicSpecies
