NumberOfAtoms 24
NumberOfSpecies 2
WriteCoorStep True
%block ChemicalSpeciesLabel
 1  6  C
 2  8  O
%endblock ChemicalSpeciesLabel
LatticeConstant       1.0 Ang
%block LatticeVectors
  8.399516  0.0  0.0
  0.0  8.399515  0.0
  0.0  0.0  20.0
%endblock LatticeVectors
AtomicCoordinatesFormat Fractional
%block AtomicCoordinatesAndAtomicSpecies
    0.00000000    0.41279654    0.00000189 1
    0.00000010    0.58720278    0.00000115 1
    0.41279648    0.00000000    0.00000195 1
    0.58720272    0.00000010    0.00000158 1
    0.14993332    0.33594656    0.00000369 1
    0.14993374    0.66405506    0.00000121 1
    0.85006524    0.33594998    0.00000095 1
    0.85006568    0.66405266    0.00000041 1
    0.29597032    0.41601620    0.00000451 1
    0.29597104    0.58398424    0.00000235 1
    0.70402684    0.41601738    0.00000135 1
    0.70402778    0.58398476    0.00000073 1
    0.33594652    0.14993334    0.00000387 1
    0.33594994    0.85006534    0.00000048 1
    0.66405498    0.14993376    0.00000203 1
    0.66405260    0.85006578    0.00000056 1
    0.41601616    0.29597036    0.00000474 1
    0.41601734    0.70402690    0.00000096 1
    0.58398418    0.29597108    0.00000299 1
    0.58398470    0.70402784    0.00000070 1
    0.17281580    0.17281582    0.00000367 2
    0.17282104    0.82718392    0.00000000 2
    0.82718382    0.17282106    0.00000089 2
    0.82718088    0.82718098    0.00000011 2
%endblock AtomicCoordinatesAndAtomicSpecies
