k-points
 0
Monkhorst Pack
 5 5 5
 0  0  0