model 
 1.0 
  2.9114147999999997  0.0  0.0
  0.0  2.5213579999999998  0.0
  0.0  0.0  1.0467996
 H P
 3 1
Selective dynamics
Direct
     0.50000000    0.97619060   -0.15121183 T T T
     0.85714286    0.26190488   -0.15121183 T T T
     0.14285714    0.26190488   -0.15121183 T T T
     0.50000000    0.49999999    0.56307388 F F F
