NumberOfAtoms 48
NumberOfSpecies 1
%block ChemicalSpeciesLabel
 1  6  C
%endblock ChemicalSpeciesLabel
%block Zmatrix
cartesian
 1    3.787688     1.378625      0.001223      1  1  1
 1    2.011979     3.491865      0.00145      1  1  1
 1    0.699112     3.968743      0.00166      1  1  1
 1    -2.018107     3.489149      0.001264      1  1  1
 1    -3.08738     2.590447      0.00133      1  1  1
 1    -4.030499     -0.003964      0.001713      1  1  1
 1    -3.787688     -1.378625      0.001223      1  1  1
 1    -2.011979     -3.491865      0.00145      1  1  1
 1    -0.699112     -3.968743      0.00166      1  1  1
 1    2.018107     -3.489149      0.001264      1  1  1
 1    3.08738     -2.590447      0.00133      1  1  1
 1    4.030499     0.003964      0.001713      1  1  1
 1    3.968786     -0.699123      1.241651      1  1  1
 1    3.489214     2.018133      1.241222      1  1  1
 1    2.590473     3.087438      1.241306      1  1  1
 1    -0.003966     4.030547      1.241651      1  1  1
 1    -1.378657     3.787761      1.241211      1  1  1
 1    -3.491909     2.012024      1.241424      1  1  1
 1    -3.968786     0.699123      1.241651      1  1  1
 1    -3.489214     -2.018133      1.241222      1  1  1
 1    -2.590473     -3.087438      1.241306      1  1  1
 1    0.003966     -4.030547      1.241651      1  1  1
 1    1.378657     -3.787761      1.241211      1  1  1
 1    3.491909     -2.012024      1.241424      1  1  1
 1    3.787789     1.378638      2.481409      1  1  1
 1    2.012033     3.491906      2.481634      1  1  1
 1    0.699126     3.968805      2.481844      1  1  1
 1    -2.018172     3.489247      2.481415      1  1  1
 1    -3.087448     2.59048      2.481523      1  1  1
 1    -4.030602     -0.003963      2.481879      1  1  1
 1    -3.787789     -1.378638      2.481409      1  1  1
 1    -2.012033     -3.491906      2.481634      1  1  1
 1    -0.699126     -3.968805      2.481844      1  1  1
 1    2.018172     -3.489247      2.481415      1  1  1
 1    3.087448     -2.59048      2.481523      1  1  1
 1    4.030602     0.003963      2.481879      1  1  1
 1    3.968767     -0.69913      3.721824      1  1  1
 1    3.489177     2.018095      3.721375      1  1  1
 1    2.590459     3.087371      3.721474      1  1  1
 1    -0.003982     4.030528      3.721842      1  1  1
 1    -1.378652     3.787724      3.721404      1  1  1
 1    -3.491874     2.011982      3.721602      1  1  1
 1    -3.968767     0.69913      3.721824      1  1  1
 1    -3.489177     -2.018095      3.721375      1  1  1
 1    -2.590459     -3.087371      3.721474      1  1  1
 1    0.003982     -4.030528      3.721842      1  1  1
 1    1.378652     -3.787724      3.721404      1  1  1
 1    3.491874     -2.011982      3.721602      1  1  1
%endblock Zmatrix
SystemName          nanotube (6,6)
SystemLabel         SWNT
PAO.SplitNorm    0.59
PAO.BasisSize    DZP
PAO.EnergyShift  0.05 eV
MeshCutoff       200.0 Ry
SpinPolarized True
MaxSCFIterations       125
#Diag.ParallelOverK   .true.
SolutionMethod         diagon
NetCharge     0.00
DM.NumberPulay    4
DM.MixingWeight   0.3
DM.UseSaveDM      .true.
NeglNonOverlapInt False
AtomicCoordinatesFormat  NotScaledCartesianAng
XC.functional=GGA
XC.authors=PBE
ZM.UnitsLength = Ang
LatticeConstant       1.0 Ang
MD.TypeOfRun           cg               # Type of dynamics: Conjugate gradients
MD.NumCGsteps          360              # number of CG steps
MD.MaxCGDispl          0.15 Ang
MD.UseSaveXV           yes
MD.VariableCell        .false.
SaveRho                  .true.
WriteCoorXmol     True
WriteForces .true.
WriteMullikenPop     1
%block kgrid_Monkhorst_Pack
  1  0  0   0.0
  0  1  0   0.0
  0  0  40   0.0
%endblock kgrid_Monkhorst_Pack
%block LatticeParameters
  90.0  90.0  5.046  90.  90.  90.
%endblock LatticeParameters
%block ProjectedDensityOfStates
-20.00 10.00 0.200 500 eV
%endblock ProjectedDensityOfStates
