%include params.fdf

NumberOfSpecies	1
NumberOfAtoms	32
%block ChemicalSpecieslabel
    1 6 C
%endblock ChemicalSpecieslabel

%block PAO.BasisSizes
    C	DZP
%endblock PAO.BasisSizes


LatticeConstant	1.0 Ang
%block LatticeVectors
   40.000000000000000     0.000000000000000     0.000000000000000 
    0.000000000000000    40.000000000000000     0.000000000000000 
    0.000000000000000     0.000000000000000     4.230000000000000 
%endblock LatticeVectors


AtomicCoordinatesFormat  Ang
%block AtomicCoordinatesAndAtomicSpecies
    -2.001146880      2.438101870     -1.412695760 1
    -0.915527970      3.018412790     -0.702383100 1
    -2.781823880      1.486600810     -0.702417270 1
    -2.781818220      1.486566800      0.702396520 1
    -2.001088710      2.438120860      1.412626810 1
    -0.915384690      3.018438460      0.702322030 1
    -2.438101870     -2.001146870     -1.412695750 1
    -3.018412790     -0.915527970     -0.702383110 1
    -3.139075440      0.309057030     -1.412756710 1
    -3.139108710      0.309029960      1.412756700 1
    -1.486600820     -2.781823890     -0.702417280 1
    -1.486566810     -2.781818220      0.702396530 1
    -2.438120870     -2.001088710      1.412626810 1
    -3.018438460     -0.915384690      0.702322040 1
     2.001146880     -2.438101870     -1.412695750 1
     0.915527970     -3.018412790     -0.702383110 1
    -0.309057030     -3.139075440     -1.412756710 1
    -0.309029960     -3.139108710      1.412756700 1
     2.781823890     -1.486600820     -0.702417280 1
     2.781818220     -1.486566810      0.702396530 1
     2.001088720     -2.438120870      1.412626800 1
     0.915384690     -3.018438460      0.702322040 1
     2.438101870      2.001146880     -1.412695750 1
     3.018412790      0.915527980     -0.702383110 1
     3.139075440     -0.309057020     -1.412756710 1
     3.139108710     -0.309029960      1.412756700 1
     1.486600810      2.781823890     -0.702417270 1
     1.486566800      2.781818220      0.702396530 1
     2.438120860      2.001088720      1.412626810 1
     3.018438460      0.915384690      0.702322040 1
     0.309057020      3.139075440     -1.412756710 1
     0.309029960      3.139108710      1.412756710 1
%endblock AtomicCoordinatesAndAtomicSpecies


%block kgrid_Monkhorst_Pack
     1       0       0   0.0
     0       1       0   0.0
     0       0       60  0.0
%endblock kgrid_Monkhorst_Pack

%block ProjectedDensityOfStates
   -24.00  15.00  0.100  1000  eV
%endblock ProjectedDensityOfStates

BandLineScale  pi/a

%block Bandlines
1  0.000 0.000 0.000 "\Gamma"   #start at gamma
99 0.000 0.000 0.235 "X"        #99 k points to x
%endblock BandLines

WriteBands     True

