NumberOfAtoms 90
NumberOfSpecies 2
%block ChemicalSpeciesLabel
 1  5  B
 2  7  N
%endblock ChemicalSpeciesLabel
LatticeConstant       1.0 Ang
%block LatticeParameters
  100.0  100.0  100.0  90.0  90.0  90.0
%endblock LatticeParameters
AtomicCoordinatesFormat NotScaledCartesianAng
%block Zmatrix
cartesian
 1        2.70394013    1.96452750    0.00000000      1  1  1
 2        1.67112690    2.89447670    0.00000000      1  1  1
 1       -1.03281323    3.17867226    0.00000000      1  1  1
 2       -2.23640432    2.48377862    0.00000000      1  1  1
 1       -3.34225380    0.00000000    0.00000000      1  1  1
 2       -3.05330078   -1.35941709    0.00000000      1  1  1
 1       -1.03281323   -3.17867226    0.00000000      1  1  1
 2        0.34936065   -3.32394459    0.00000000      1  1  1
 1        2.70394013   -1.96452750    0.00000000      1  1  1
 2        3.26921754   -0.69489364    0.00000000      1  1  1
 1        1.03281323    3.17867226    1.21243557      1  1  1
 2       -0.34936065    3.32394459    1.21243557      1  1  1
 1       -2.70394013    1.96452750    1.21243557      1  1  1
 2       -3.26921754    0.69489364    1.21243557      1  1  1
 1       -2.70394013   -1.96452750    1.21243557      1  1  1
 2       -1.67112690   -2.89447670    1.21243557      1  1  1
 1        1.03281323   -3.17867226    1.21243557      1  1  1
 2        2.23640432   -2.48377862    1.21243557      1  1  1
 1        3.34225380   -0.00000000    1.21243557      1  1  1
 2        3.05330078    1.35941709    1.21243557      1  1  1
 1       -1.03281323    3.17867226    2.42487113      1  1  1
 2       -2.23640432    2.48377862    2.42487113      1  1  1
 1       -3.34225380    0.00000000    2.42487113      1  1  1
 2       -3.05330078   -1.35941709    2.42487113      1  1  1
 1       -1.03281323   -3.17867226    2.42487113      1  1  1
 2        0.34936065   -3.32394459    2.42487113      1  1  1
 1        2.70394013   -1.96452750    2.42487113      1  1  1
 2        3.26921754   -0.69489364    2.42487113      1  1  1
 1        2.70394013    1.96452750    2.42487113      1  1  1
 2        1.67112690    2.89447670    2.42487113      1  1  1
 1       -2.70394013    1.96452750    3.63730670      1  1  1
 2       -3.26921754    0.69489364    3.63730670      1  1  1
 1       -2.70394013   -1.96452750    3.63730670      1  1  1
 2       -1.67112690   -2.89447670    3.63730670      1  1  1
 1        1.03281323   -3.17867226    3.63730670      1  1  1
 2        2.23640432   -2.48377862    3.63730670      1  1  1
 1        3.34225380   -0.00000000    3.63730670      1  1  1
 2        3.05330078    1.35941709    3.63730670      1  1  1
 1        1.03281323    3.17867226    3.63730670      1  1  1
 2       -0.34936065    3.32394459    3.63730670      1  1  1
 1       -3.34225380    0.00000000    4.84974226      1  1  1
 2       -3.05330078   -1.35941709    4.84974226      1  1  1
 1       -1.03281323   -3.17867226    4.84974226      1  1  1
 2        0.34936065   -3.32394459    4.84974226      1  1  1
 1        2.70394013   -1.96452750    4.84974226      1  1  1
 2        3.26921754   -0.69489364    4.84974226      1  1  1
 1        2.70394013    1.96452750    4.84974226      1  1  1
 2        1.67112690    2.89447670    4.84974226      1  1  1
 1       -1.03281323    3.17867226    4.84974226      1  1  1
 2       -2.23640432    2.48377862    4.84974226      1  1  1
 1       -2.70394013   -1.96452750    6.06217783      1  1  1
 2       -1.67112690   -2.89447670    6.06217783      1  1  1
 1        1.03281323   -3.17867226    6.06217783      1  1  1
 2        2.23640432   -2.48377862    6.06217783      1  1  1
 1        3.34225380   -0.00000000    6.06217783      1  1  1
 2        3.05330078    1.35941709    6.06217783      1  1  1
 1        1.03281323    3.17867226    6.06217783      1  1  1
 2       -0.34936065    3.32394459    6.06217783      1  1  1
 1       -2.70394013    1.96452750    6.06217783      1  1  1
 2       -3.26921754    0.69489364    6.06217783      1  1  1
 1       -1.03281323   -3.17867226    7.27461339      1  1  1
 2        0.34936065   -3.32394459    7.27461339      1  1  1
 1        2.70394013   -1.96452750    7.27461339      1  1  1
 2        3.26921754   -0.69489364    7.27461339      1  1  1
 1        2.70394013    1.96452750    7.27461339      1  1  1
 2        1.67112690    2.89447670    7.27461339      1  1  1
 1       -1.03281323    3.17867226    7.27461339      1  1  1
 2       -2.23640432    2.48377862    7.27461339      1  1  1
 1       -3.34225380    0.00000000    7.27461339      1  1  1
 2       -3.05330078   -1.35941709    7.27461339      1  1  1
 1        1.03281323   -3.17867226    8.48704896      1  1  1
 2        2.23640432   -2.48377862    8.48704896      1  1  1
 1        3.34225380   -0.00000000    8.48704896      1  1  1
 2        3.05330078    1.35941709    8.48704896      1  1  1
 1        1.03281323    3.17867226    8.48704896      1  1  1
 2       -0.34936065    3.32394459    8.48704896      1  1  1
 1       -2.70394013    1.96452750    8.48704896      1  1  1
 2       -3.26921754    0.69489364    8.48704896      1  1  1
 1       -2.70394013   -1.96452750    8.48704896      1  1  1
 2       -1.67112690   -2.89447670    8.48704896      1  1  1
 1        2.70394013   -1.96452750    9.69948452      1  1  1
 2        3.26921754   -0.69489364    9.69948452      1  1  1
 1        2.70394013    1.96452750    9.69948452      1  1  1
 2        1.67112690    2.89447670    9.69948452      1  1  1
 1       -1.03281323    3.17867226    9.69948452      1  1  1
 2       -2.23640432    2.48377862    9.69948452      1  1  1
 1       -3.34225380    0.00000000    9.69948452      1  1  1
 2       -3.05330078   -1.35941709    9.69948452      1  1  1
 1       -1.03281323   -3.17867226    9.69948452      1  1  1
 2        0.34936065   -3.32394459    9.69948452      1  1  1
%endblock Zmatrix
