SystemName          nanotube (7,7)
SystemLabel         C112
NumberOfAtoms       112
NumberOfSpecies     1
WriteMullikenPop    1 

%block ChemicalSpeciesLabel
 1  6  C      # Species index, atomic number, species label
%endblock ChemicalSpeciesLabel 

#PAO.BasisSize  DZP
PAO.EnergyShift  0.05 eV
MeshCutoff       200.0 Ry
#kgrid_cutoff     5.0 Bohr

%block kgrid_Monkhorst_Pack
  1  0  0   0.5
  0  1  0   0.5
  0  0  32  0.5
%endblock kgrid_Monkhorst_Pack

spinpolarized   true

%block PAO.Basis
C     2      0.0
 n=2    0    2   P      1
   8.030037   2.953824
   1.000000   1.000000
 n=2    1    2   P      1
  10.056301   3.183912
   1.000000   1.000000
%endblock PAO.Basis


BandLineScale  pi/a

%block Bandlines
1   0.000 0.000 0.000 \Gamma   #start at gamma
299 0.000 0.000 14.000 X        #50 k points to x
%endblock BandLines

WriteBands     true



OpticalCalculation .true.

%block  Optical.Mesh
 3  3  50
%endblock  Optical.Mesh


Optical.OffsetMesh .true.

Optical.PolarizationType polarized

%block  Optical.Vector
    0.0 0.0 1.0
%endblock  Optical.Vector

Optical.Broaden 0.05 eV

Optical.EnergyMaximum  100.0 eV

Optical.EnergyMinimum  0.0 eV



SpinPolarized True



MaxSCFIterations       150
#Diag.ParallelOverK   .true.
SolutionMethod         diagon
NetCharge     0.00
DM.NumberPulay    4
DM.MixingWeight   0.3
DM.UseSaveDM      .true.
NeglNonOverlapInt False
AtomicCoordinatesFormat  NotScaledCartesianAng
#AtomicCoordinatesAndAtomicSpecies < nano.xyz

XC.functional=LDA
XC.authors=CA
ZM.UnitsLength = Ang

%block Zmatrix
cartesian
   1   4.74626725   0.00143343   0.06225043   1   1   1
   1   4.5354153   1.39974387   0.06232081   1   1   1
   1   2.95871606   3.71168346   0.06225076   1   1   1
   1   1.73378903   4.41834162   0.06230117   1   1   1
   1   -1.05671362   4.62647075   0.06234989   1   1   1
   1   -2.37302226   4.10948512   0.06229866   1   1   1
   1   -4.2762309   2.05777425   0.06226231   1   1   1
   1   -4.69317072   0.70649363   0.06237781   1   1   1
   1   -4.27598441   -2.06056515   0.06236071   1   1   1
   1   -3.47930459   -3.22896791   0.06224399   1   1   1
   1   -1.05540026   -4.62735694   0.06224606   1   1   1
   1   0.3548277   -4.73254064   0.06233955   1   1   1
   1   2.95955825   -3.70951837   0.06222886   1   1   1
   1   3.92134267   -2.6727023   0.06224541   1   1   1
   1   2.37380343   -4.1111173   1.28494762   1   1   1
   1   4.27785415   -2.0584264   1.28487697   1   1   1
   1   4.69485864   -0.70691257   1.28496446   1   1   1
   1   4.27746342   2.06148513   1.28496596   1   1   1
   1   3.48061803   3.23001806   1.28496317   1   1   1
   1   1.05565673   4.62904853   1.28501664   1   1   1
   1   -0.35481169   4.73424998   1.28507745   1   1   1
   1   -2.9607206   3.71075485   1.28496626   1   1   1
   1   -3.92261874   2.67378637   1.28498349   1   1   1
   1   -4.7479858   -0.00159324   1.28504217   1   1   1
   1   -4.53711768   -1.4000987   1.28509141   1   1   1
   1   -2.95969454   -3.71314452   1.28490698   1   1   1
   1   -1.73458381   -4.41991025   1.28491547   1   1   1
   1   1.05727302   -4.62816559   1.2850188   1   1   1
   1   2.96042942   -3.71050841   2.50745339   1   1   1
   1   3.9222975   -2.6735031   2.50740828   1   1   1
   1   4.74753332   0.00155283   2.50743619   1   1   1
   1   4.53668863   1.40003621   2.50751303   1   1   1
   1   2.95946451   3.71277033   2.50747641   1   1   1
   1   1.73438966   4.41952119   2.50752114   1   1   1
   1   -1.05712188   4.62772262   2.50761316   1   1   1
   1   -2.3736197   4.11069312   2.50750271   1   1   1
   1   -4.27745181   2.05827119   2.50749249   1   1   1
   1   -4.69444218   0.7068157   2.50755268   1   1   1
   1   -4.27709624   -2.06121478   2.50758317   1   1   1
   1   -3.48030828   -3.22973999   2.50742471   1   1   1
   1   -1.05560784   -4.62859105   2.50747248   1   1   1
   1   0.3548163   -4.73381608   2.50752686   1   1   1
   1   -1.73409449   -4.41867253   3.72989934   1   1   1
   1   1.05691796   -4.6268967   3.73002818   1   1   1
   1   2.37319755   -4.10999108   3.72992336   1   1   1
   1   4.27664581   -2.05790345   3.72987656   1   1   1
   1   4.69358748   -0.70666455   3.72990773   1   1   1
   1   4.27633319   2.06083987   3.72998343   1   1   1
   1   3.47971965   3.2291621   3.72994456   1   1   1
   1   1.0554278   4.62778232   3.73001237   1   1   1
   1   -0.35472356   4.73296624   3.73004005   1   1   1
   1   -2.95993057   3.7097865   3.72999004   1   1   1
   1   -3.92164442   2.67302281   3.72992436   1   1   1
   1   -4.74670851   -0.00154289   3.73004031   1   1   1
   1   -4.5358607   -1.39974799   3.73004439   1   1   1
   1   -2.95895602   -3.71209025   3.72991514   1   1   1
   1   -1.05542033   -4.62777515   4.95234201   1   1   1
   1   0.35472648   -4.73295833   4.95240583   1   1   1
   1   2.95992933   -3.70984124   4.95234274   1   1   1
   1   3.92164622   -2.67303728   4.95227155   1   1   1
   1   4.74672402   0.00150322   4.95236327   1   1   1
   1   4.53585374   1.39972689   4.95238902   1   1   1
   1   2.95894857   3.71208369   4.95236547   1   1   1
   1   1.73410363   4.41866868   4.95239708   1   1   1
   1   -1.05692081   4.62686722   4.95247005   1   1   1
   1   -2.37317056   4.10994351   4.95234688   1   1   1
   1   -4.2766728   2.05785195   4.9523871   1   1   1
   1   -4.69359386   0.70664064   4.95241016   1   1   1
   1   -4.27633719   -2.06083965   4.95248392   1   1   1
   1   -3.47973604   -3.22917689   4.95231576   1   1   1
   1   -4.53667339   -1.40001355   6.17493447   1   1   1
   1   -2.95948091   -3.71278432   6.17476932   1   1   1
   1   -1.73440152   -4.41951765   6.17477211   1   1   1
   1   1.05712336   -4.62772853   6.17487095   1   1   1
   1   2.37362957   -4.11072474   6.17478822   1   1   1
   1   4.27742378   -2.05829352   6.17476075   1   1   1
   1   4.69444002   -0.7068062   6.17479259   1   1   1
   1   4.27709564   2.06117422   6.17486741   1   1   1
   1   3.48032657   3.2297085   6.17481104   1   1   1
   1   1.0556126   4.62859832   6.17487331   1   1   1
   1   -0.35479212   4.73381435   6.17491872   1   1   1
   1   -2.96045852   3.71045336   6.17480753   1   1   1
   1   -3.92231829   2.67348982   6.1748027   1   1   1
   1   -4.74755203   -0.00154241   6.17492519   1   1   1
   1   -4.2774456   -2.06144204   7.39744425   1   1   1
   1   -3.48062773   -3.23001296   7.39729702   1   1   1
   1   -1.05565273   -4.62904762   7.39729652   1   1   1
   1   0.35479841   -4.73425779   7.39739283   1   1   1
   1   2.96073678   -3.71079248   7.39729853   1   1   1
   1   3.92262715   -2.67378108   7.39726993   1   1   1
   1   4.74796449   0.00155512   7.39733713   1   1   1
   1   4.53711883   1.40009093   7.39736869   1   1   1
   1   2.95973339   3.71313689   7.39732832   1   1   1
   1   1.73463097   4.41991805   7.39736563   1   1   1
   1   -1.05728882   4.6281418   7.39740297   1   1   1
   1   -2.37379901   4.11108992   7.39734904   1   1   1
   1   -4.27783901   2.05840482   7.39732327   1   1   1
   1   -4.69483646   0.70691604   7.39740788   1   1   1
   1   -3.9213098   2.67268363   8.6200409   1   1   1
   1   -4.74625557   -0.00143262   8.62009462   1   1   1
   1   -4.53541463   -1.39973897   8.62015087   1   1   1
   1   -2.95873149   -3.71169169   8.61997238   1   1   1
   1   -1.73380115   -4.41834022   8.62000076   1   1   1
   1   1.05674257   -4.6265007   8.62006989   1   1   1
   1   2.37305689   -4.10952639   8.6200375   1   1   1
   1   4.27621582   -2.05781155   8.61994655   1   1   1
   1   4.69316669   -0.70650407   8.6200253   1   1   1
   1   4.27598003   2.06055185   8.62006924   1   1   1
   1   3.47929374   3.22894221   8.62000331   1   1   1
   1   1.05542297   4.62736963   8.62004155   1   1   1
   1   -0.35481811   4.73254185   8.62012219   1   1   1
   1   -2.95954635   3.70947622   8.61999853   1   1   1
%endblock Zmatrix 

LatticeConstant  97.8061228574  Ang

%block LatticeParameters
  1.0 1.0 0.1 90. 90. 90.   #14.8921728
%endblock LatticeParameters 

WriteCoorXmol     True
WriteForces .true.
WriteMullikenPop     1
#SaveDeltaRho                  .true. 
%block ProjectedDensityOfStates
   -24.00  15.00  0.100  1000  eV
%endblock ProjectedDensityOfStates 
MD.TypeOfRun           cg               # Type of dynamics: Conjugate gradients
MD.NumCGsteps          320              # number of CG steps
MD.MaxCGDispl          0.15 Ang
MD.MaxForceTol         0.04 eV/Ang
MD.UseSaveXV           yes
MD.VariableCell        .false.
