SystemName          nanotube (7,7)
SystemLabel         C112
NumberOfAtoms       117
NumberOfSpecies     2
WriteMullikenPop    1 
%block ChemicalSpeciesLabel
 1  3  Li
 2  6  C
%endblock ChemicalSpeciesLabel 
#PAO.BasisSize  DZP
PAO.EnergyShift  0.05 eV
MeshCutoff       200.0 Ry
PAO.SplitNorm  0.59
#kgrid_cutoff     5.0 Bohr

%block kgrid_Monkhorst_Pack
  1  0  0   0.5
  0  1  0   0.5
  0  0  32  0.5
%endblock kgrid_Monkhorst_Pack

Spinpolarized  true



MaxSCFIterations       150
Diag.ParallelOverK   .true.
SolutionMethod         diagon
NetCharge     0.00
DM.NumberPulay    4
DM.MixingWeight   0.3
DM.UseSaveDM      .true.
NeglNonOverlapInt False
AtomicCoordinatesFormat  NotScaledCartesianAng
#AtomicCoordinatesAndAtomicSpecies < nano.xyz

XC.functional=LDA
XC.authors=CA
ZM.UnitsLength = Ang

%block Zmatrix
cartesian
  2   0.185565  -4.691394   0.022702  1  1  1
  2  -1.222057  -4.532410   0.021587  1  1  1
  2   2.850622  -3.800928   0.022679  1  1  1
  2   4.858428  -0.192152   0.023917  1  1  1
  2   3.873276  -2.820863   0.023053  1  1  1
  2   4.724919   1.218058   0.022762  1  1  1
  2   3.232988   3.601819   0.019514  1  1  1
  2  -3.629972  -3.083696   0.019677  1  1  1
  2   2.006366   4.321154   0.019501  1  1  1
  2  -4.411280  -1.901465   0.019767  1  1  1
  2  -4.710731   0.884693   0.021593  1  1  1
  2  -4.193608   2.203592   0.021847  1  1  1
  2  -0.798427   4.577518   0.021465  1  1  1
  2  -2.138627   4.119395   0.022065  1  1  1
  1   1.627923   2.011104   1.257183  1  1  1
  2   2.239054  -4.167944   1.245146  1  1  1
  2   0.894587  -4.614319   1.245291  1  1  1
  2  -1.899070  -4.304943   1.243849  1  1  1
  2   4.267889  -2.225852   1.244848  1  1  1
  2  -3.115070  -3.578619   1.242698  1  1  1
  2  -4.653838  -1.229768   1.241802  1  1  1
  2  -2.749550   3.753157   1.244350  1  1  1
  2  -4.803062   0.176912   1.243330  1  1  1
  2  -3.784118   2.786310   1.244671  1  1  1
  2   4.766859  -0.900390   1.244843  1  1  1
  2   4.500762   1.897627   1.245210  1  1  1
  2   3.757647   3.109945   1.244961  1  1  1
  2  -0.088970   4.661762   1.243228  1  1  1
  2   1.325160   4.543174   1.243623  1  1  1
  2  -3.641927  -3.093372   2.465994  1  1  1
  2   2.850024  -3.798255   2.467584  1  1  1
  2  -1.221770  -4.531370   2.466736  1  1  1
  2   0.185190  -4.687831   2.467490  1  1  1
  2  -4.188777   2.199335   2.466508  1  1  1
  2   3.875055  -2.821770   2.465874  1  1  1
  2  -4.420416  -1.904488   2.465551  1  1  1
  2  -4.711920   0.884412   2.465365  1  1  1
  2   4.861159  -0.191828   2.465468  1  1  1
  2  -0.799689   4.582189   2.465708  1  1  1
  2   2.002672   4.312243   2.469366  1  1  1
  2  -2.138879   4.120613   2.466251  1  1  1
  2   4.727227   1.217526   2.467134  1  1  1
  2   3.228569   3.595008   2.471369  1  1  1
  1   2.332977  -0.864585   4.851456  1  1  1
  2   0.894116  -4.612959   3.690634  1  1  1
  2  -3.116365  -3.579333   3.690057  1  1  1
  2  -4.666479  -1.229626   3.687227  1  1  1
  2  -4.819341   0.178307   3.685589  1  1  1
  2  -1.895912  -4.300855   3.689954  1  1  1
  2  -3.783657   2.784588   3.688819  1  1  1
  2   2.235743  -4.161764   3.690024  1  1  1
  2   4.777161  -0.902746   3.688811  1  1  1
  2  -2.751051   3.752795   3.689771  1  1  1
  2   4.279681  -2.230674   3.688364  1  1  1
  2  -0.092251   4.691873   3.688797  1  1  1
  2   1.317881   4.530486   3.691328  1  1  1
  2   4.495710   1.890643   3.691676  1  1  1
  2   3.726426   3.078833   3.693216  1  1  1
  1  -0.238786   2.266411   4.278724  1  1  1
  1  -1.933065  -1.363939   3.184627  1  1  1
  2  -4.411246  -1.896510   4.912767  1  1  1
  2  -4.740075   0.889632   4.909339  1  1  1
  2   4.876089  -0.194806   4.913365  1  1  1
  2  -3.626165  -3.075467   4.914392  1  1  1
  2   4.727557   1.214717   4.913363  1  1  1
  2  -4.202869   2.203108   4.909987  1  1  1
  2   2.848446  -3.796246   4.913122  1  1  1
  2  -1.219955  -4.528793   4.913200  1  1  1
  2   0.186022  -4.688568   4.913041  1  1  1
  2   3.886587  -2.829972   4.913128  1  1  1
  2  -2.140442   4.124136   4.911706  1  1  1
  2  -0.805518   4.609067   4.912895  1  1  1
  2   1.993028   4.299451   4.913253  1  1  1
  2   3.203213   3.565818   4.913372  1  1  1
  2   4.776308  -0.903780   6.138246  1  1  1
  2   4.279965  -2.232051   6.138216  1  1  1
  2   4.489416   1.886154   6.135880  1  1  1
  2   0.895950  -4.615635   6.135791  1  1  1
  2   1.315405   4.524995   6.135426  1  1  1
  2   2.238905  -4.166384   6.136218  1  1  1
  2  -3.109809  -3.570437   6.135350  1  1  1
  2   3.717013   3.071869   6.135223  1  1  1
  2  -0.092907   4.675689   6.136065  1  1  1
  2  -4.669724  -1.229084   6.135859  1  1  1
  2  -4.853854   0.180788   6.134614  1  1  1
  2  -3.797276   2.793451   6.133802  1  1  1
  2  -1.897699  -4.303481   6.135013  1  1  1
  2  -2.749161   3.748753   6.135464  1  1  1
  1  -2.472633   0.498931   6.154764  1  1  1
  2   3.208329   3.573105   7.356049  1  1  1
  2   3.878245  -2.825020   7.360325  1  1  1
  2   1.994208   4.302085   7.356511  1  1  1
  2   4.864553  -0.194248   7.361356  1  1  1
  2   4.726150   1.215119   7.359367  1  1  1
  2   0.185719  -4.690842   7.357950  1  1  1
  2   2.853555  -3.803490   7.358798  1  1  1
  2  -0.801299   4.585459   7.357892  1  1  1
  2  -2.141352   4.122841   7.357946  1  1  1
  2  -1.222579  -4.535254   7.357144  1  1  1
  2  -4.413276  -1.899025   7.357007  1  1  1
  2  -3.626467  -3.077213   7.356521  1  1  1
  2  -4.207983   2.208055   7.358966  1  1  1
  2  -4.741575   0.890508   7.359462  1  1  1
  2   3.732602   3.088394   8.577879  1  1  1
  2   4.493487   1.892317   8.579870  1  1  1
  2   4.267984  -2.226560   8.581803  1  1  1
  2   4.765079  -0.900495   8.582327  1  1  1
  2  -1.898312  -4.306101   8.579726  1  1  1
  2   2.239583  -4.168954   8.580647  1  1  1
  2   1.319181   4.528110   8.578691  1  1  1
  2   0.895060  -4.616672   8.580442  1  1  1
  2  -3.111255  -3.573455   8.579145  1  1  1
  2  -0.090674   4.664974   8.579826  1  1  1
  2  -4.659045  -1.229917   8.580440  1  1  1
  2  -2.752611   3.755912   8.579286  1  1  1
  2  -4.817791   0.178011   8.581821  1  1  1
  2  -3.790333   2.790969   8.580064  1  1  1
%endblock Zmatrix 

LatticeConstant      97.8061228574  Ang

%block LatticeParameters
  1.0 1.0 0.1 90. 90. 90.   #14.8921728
%endblock LatticeParameters 


WriteCoorXmol     True
WriteForces .true.
WriteMullikenPop     1
SaveRho                  .true. 


SaveBaderCharge   .true.

WriteHirshfeldPop   .true.

WriteVoronoiPop  .true.




%block ProjectedDensityOfStates
   -24.00  15.00  0.100  1000  eV
%endblock ProjectedDensityOfStates 
MD.TypeOfRun           cg               # Type of dynamics: Conjugate gradients
MD.NumCGsteps          320              # number of CG steps
MD.MaxCGDispl          0.15 Ang
MD.MaxForceTol         0.04 eV/Ang
MD.UseSaveXV           yes
MD.VariableCell        .false.
