NumberOfAtoms 96
NumberOfSpecies 1
%block ChemicalSpeciesLabel
 1  6  C
%endblock ChemicalSpeciesLabel
%block Zmatrix
cartesian
 1    2.986316     1.2369831      0.231779      1  1  1
 1    1.2369831     2.986316      0.231779      1  1  1
 1    -1.2369831     2.986316      0.231779      1  1  1
 1    -2.986316     1.2369831      0.231779      1  1  1
 1    -2.986316     -1.2369831      0.231779      1  1  1
 1    -1.2369831     -2.986316      0.231779      1  1  1
 1    1.2369831     -2.986316      0.231779      1  1  1
 1    2.986316     -1.2369831      0.231779      1  1  1
 1    2.285364     2.285364      0.8993034      1  1  1
 1    0.0     3.2320149      0.8992818      1  1  1
 1    -2.285364     2.285364      0.8993034      1  1  1
 1    -3.2320149     0.0      0.8992818      1  1  1
 1    -2.285364     -2.285364      0.8993034      1  1  1
 1    0.0     -3.2320149      0.8992818      1  1  1
 1    2.285364     -2.285364      0.8993034      1  1  1
 1    3.2320149     0.0      0.8992818      1  1  1
 1    2.2839996     2.2839996      2.2776826      1  1  1
 1    0.0     3.2301011      2.2775646      1  1  1
 1    -2.2839996     2.2839996      2.2776826      1  1  1
 1    -3.2301011     0.0      2.2775646      1  1  1
 1    -2.2839996     -2.2839996      2.2776826      1  1  1
 1    0.0     -3.2301011      2.2775646      1  1  1
 1    2.2839996     -2.2839996      2.2776826      1  1  1
 1    3.2301011     0.0      2.2775646      1  1  1
 1    1.2355952     2.9830414      2.9458035      1  1  1
 1    -1.2355952     2.9830414      2.9458035      1  1  1
 1    -2.9830414     1.2355952      2.9458035      1  1  1
 1    -2.9830414     -1.2355952      2.9458035      1  1  1
 1    -1.2355952     -2.9830414      2.9458035      1  1  1
 1    1.2355952     -2.9830414      2.9458035      1  1  1
 1    2.9830414     -1.2355952      2.9458035      1  1  1
 1    2.9830414     1.2355952      2.9458035      1  1  1
 1    1.2350059     2.9816372      4.3248518      1  1  1
 1    -1.2350059     2.9816372      4.3248518      1  1  1
 1    -2.9816372     1.2350059      4.3248518      1  1  1
 1    -2.9816372     -1.2350059      4.3248518      1  1  1
 1    -1.2350059     -2.9816372      4.3248518      1  1  1
 1    1.2350059     -2.9816372      4.3248518      1  1  1
 1    2.9816372     -1.2350059      4.3248518      1  1  1
 1    2.9816372     1.2350059      4.3248518      1  1  1
 1    0.0     3.2267113      4.9944641      1  1  1
 1    -2.2815839     2.2815839      4.9944295      1  1  1
 1    -3.2267113     0.0      4.9944641      1  1  1
 1    -2.2815839     -2.2815839      4.9944295      1  1  1
 1    0.0     -3.2267113      4.9944641      1  1  1
 1    2.2815839     -2.2815839      4.9944295      1  1  1
 1    3.2267113     0.0      4.9944641      1  1  1
 1    2.2815839     2.2815839      4.9944295      1  1  1
 1    0.0     3.2268131      6.3738891      1  1  1
 1    -2.2816202     2.2816202      6.3738567      1  1  1
 1    -3.2268131     0.0      6.3738891      1  1  1
 1    -2.2816202     -2.2816202      6.3738567      1  1  1
 1    0.0     -3.2268131      6.3738891      1  1  1
 1    2.2816202     -2.2816202      6.3738567      1  1  1
 1    3.2268131     0.0      6.3738891      1  1  1
 1    2.2816202     2.2816202      6.3738567      1  1  1
 1    -1.2350995     2.9817992      7.0431741      1  1  1
 1    -2.9817992     1.2350995      7.0431741      1  1  1
 1    -2.9817992     -1.2350995      7.0431741      1  1  1
 1    -1.2350995     -2.9817992      7.0431741      1  1  1
 1    1.2350995     -2.9817992      7.0431741      1  1  1
 1    2.9817992     -1.2350995      7.0431741      1  1  1
 1    2.9817992     1.2350995      7.0431741      1  1  1
 1    1.2350995     2.9817992      7.0431741      1  1  1
 1    -1.2356478     2.9831834      8.4222975      1  1  1
 1    -2.9831834     1.2356478      8.4222975      1  1  1
 1    -2.9831834     -1.2356478      8.4222975      1  1  1
 1    -1.2356478     -2.9831834      8.4222975      1  1  1
 1    1.2356478     -2.9831834      8.4222975      1  1  1
 1    2.9831834     -1.2356478      8.4222975      1  1  1
 1    2.9831834     1.2356478      8.4222975      1  1  1
 1    1.2356478     2.9831834      8.4222975      1  1  1
 1    -2.2839854     2.2839854      9.0905286      1  1  1
 1    -3.2301515     0.0      9.0905451      1  1  1
 1    -2.2839854     -2.2839854      9.0905286      1  1  1
 1    0.0     -3.2301515      9.0905451      1  1  1
 1    2.2839854     -2.2839854      9.0905286      1  1  1
 1    3.2301515     0.0      9.0905451      1  1  1
 1    2.2839854     2.2839854      9.0905286      1  1  1
 1    0.0     3.2301515      9.0905451      1  1  1
 1    -2.2852766     2.2852766      10.4687592      1  1  1
 1    -3.2318831     0.0      10.4687733      1  1  1
 1    -2.2852766     -2.2852766      10.4687592      1  1  1
 1    0.0     -3.2318831      10.4687733      1  1  1
 1    2.2852766     -2.2852766      10.4687592      1  1  1
 1    3.2318831     0.0      10.4687733      1  1  1
 1    2.2852766     2.2852766      10.4687592      1  1  1
 1    0.0     3.2318831      10.4687733      1  1  1
 1    -2.9862287     1.2369587      11.1366669      1  1  1
 1    -2.9862287     -1.2369587      11.1366669      1  1  1
 1    -1.2369587     -2.9862287      11.1366669      1  1  1
 1    1.2369587     -2.9862287      11.1366669      1  1  1
 1    2.9862287     -1.2369587      11.1366669      1  1  1
 1    2.9862287     1.2369587      11.1366669      1  1  1
 1    1.2369587     2.9862287      11.1366669      1  1  1
 1    -1.2369587     2.9862287      11.1366669      1  1  1
%endblock Zmatrix
SystemName          nanotube (8,0)
SystemLabel         SWNT
MeshCutoff       300.0 Ry
MaxSCFIterations       100
SolutionMethod         diagon
XC.functional=GGA
XC.authors=PBE
ZM.UnitsLength = Ang
LatticeConstant 1.0 Ang
MD.TypeOfRun           cg               # Type of dynamics: Conjugate gradients
MD.NumCGsteps          100                # number of CG steps
MD.MaxCGDispl          0.15 Ang
WriteForces .true.
WriteMullikenPop     1
WriteCoorXmol       True
SaveBaderCharge     True
WriteHirshfeldPop   True
WriteVoronoiPop     True
SaveRho             True 
SaveDeltaRho            True 
%block kgrid_Monkhorst_Pack
  1  0  0    0.0
  0  1  0    0.0
  0  0  40   0.0
%endblock kgrid_Monkhorst_Pack
%block LatticeParameters
90.0 90.0 12.2833 90. 90.  90.
%endblock LatticeParameters
%block ProjectedDensityOfStates
-20.00 10.00 0.200 500 eV
%endblock ProjectedDensityOfStates

BandLineScale  pi/a

%block Bandlines
1  0.000 0.000 0.000 "\Gamma"   #start at gamma
99 0.000 0.000 0.080 "X"        #99 k points to x
%endblock BandLines

WriteBands     true
