&control
    calculation='scf'
    restart_mode='from_scratch',
    prefix='Si'
    pseudo_dir = '.'
    outdir='./tmp/'
    verbosity='high'
 /                                              
 &system
    ibrav = 2,
    celldm(1) = 10.20,
    nat = 2, 
    ntyp = 1,
    ecutwfc = 20.0,
 /
 &electrons
    conv_thr =  1.d-9
    mixing_beta = 0.3
 /
ATOMIC_SPECIES
 Si  28.086  Si.pbe-n-kjpaw_psl.1.0.0.UPF
ATOMIC_POSITIONS {alat}
 Si 0.00 0.00 0.00
 Si 0.25 0.25 0.25
K_POINTS {automatic}
 8 8 8 1 1 1
