SystemName          nanotube (7,7)
SystemLabel         C112
NumberOfAtoms       119
NumberOfSpecies     2
WriteMullikenPop    1 
%block ChemicalSpeciesLabel
 1  3  Li      # Species index, atomic number, species label
 2  6  C
%endblock ChemicalSpeciesLabel 
#PAO.BasisSize  DZP
PAO.EnergyShift  0.05 eV
PAO.SplitNorm  0.59
MeshCutoff       200.0 Ry
#kgrid_cutoff     5.0 Bohr

%block kgrid_Monkhorst_Pack
  1  0  0   0.0
  0  1  0   0.0
  0  0  1   0.0
%endblock kgrid_Monkhorst_Pack

Spinpolarized false # true

MaxSCFIterations       150
#Diag.ParallelOverK   .true.
SolutionMethod         diagon
NetCharge     0.00
DM.NumberPulay    4
DM.MixingWeight   0.3
DM.UseSaveDM      .true.
NeglNonOverlapInt False
AtomicCoordinatesFormat  NotScaledCartesianAng

XC.functional=LDA
XC.authors=CA
ZM.UnitsLength = Ang

%block Zmatrix
cartesian
  2   4.780112   0.008503   0.088103  1  1  1
  2   4.553791   1.406463   0.088897  1  1  1
  2   2.972618   3.727572   0.088740  1  1  1
  2   1.760420   4.468105   0.088830  1  1  1
  2  -1.048645   4.654003   0.089115  1  1  1
  2  -2.354910   4.103181   0.089529  1  1  1
  2  -4.274318   2.051670   0.088630  1  1  1
  2  -4.725488   0.704724   0.088180  1  1  1
  2  -4.306492  -2.076796   0.085817  1  1  1
  2  -3.488856  -3.235627   0.086043  1  1  1
  2  -1.043841  -4.615439   0.088240  1  1  1
  2   0.370848  -4.736067   0.089111  1  1  1
  2   3.000131  -3.720397   0.086874  1  1  1
  2   3.963118  -2.674802   0.086707  1  1  1
  2   2.409502  -4.124505   1.312353  1  1  1
  2   4.321163  -2.058044   1.308990  1  1  1
  2   4.736635  -0.704028   1.309117  1  1  1
  2   4.285161   2.066177   1.310815  1  1  1
  2   3.489111   3.237061   1.312184  1  1  1
  2   1.077056   4.687028   1.314856  1  1  1
  2  -0.343416   4.777669   1.313817  1  1  1
  2  -2.945514   3.704422   1.310623  1  1  1
  2  -3.908844   2.666040   1.310604  1  1  1
  2  -4.762034  -0.007816   1.312438  1  1  1
  2  -4.561380  -1.409585   1.310731  1  1  1
  2  -2.955754  -3.709198   1.308361  1  1  1
  2  -1.724458  -4.406229   1.309703  1  1  1
  2   1.082408  -4.639211   1.311959  1  1  1
  2   2.987668  -3.704039   2.535665  1  1  1
  2   3.956888  -2.669325   2.533195  1  1  1
  2   4.797273   0.008933   2.530056  1  1  1
  2   4.563948   1.406862   2.531642  1  1  1
  2   2.972513   3.727174   2.534760  1  1  1
  2   1.753605   4.452029   2.536696  1  1  1
  2  -1.051342   4.653050   2.533794  1  1  1
  2  -2.364606   4.119547   2.532455  1  1  1
  2  -4.268504   2.055387   2.535508  1  1  1
  2  -4.693054   0.703443   2.535731  1  1  1
  2  -4.315262  -2.082746   2.532182  1  1  1
  2  -3.493038  -3.242230   2.531430  1  1  1
  2  -1.043304  -4.621637   2.530361  1  1  1
  2   0.370624  -4.730018   2.532655  1  1  1
  2  -1.730083  -4.421482   3.750841  1  1  1
  2   1.071717  -4.617997   3.755772  1  1  1
  2   2.387617  -4.093186   3.756471  1  1  1
  2   4.325904  -2.053367   3.754134  1  1  1
  2   4.774104  -0.704025   3.753268  1  1  1
  2   4.300170   2.069230   3.754789  1  1  1
  2   3.489129   3.232096   3.755775  1  1  1
  2   1.067360   4.654663   3.757890  1  1  1
  2  -0.345506   4.763918   3.755869  1  1  1
  2  -2.957609   3.722218   3.754563  1  1  1
  2  -3.912260   2.673106   3.756622  1  1  1
  2  -4.756261  -0.009014   3.756687  1  1  1
  2  -4.576188  -1.417189   3.757223  1  1  1
  2  -2.964710  -3.724197   3.752600  1  1  1
  2  -1.055844  -4.649631   4.975313  1  1  1
  2   0.362735  -4.735166   4.975188  1  1  1
  2   2.969997  -3.682621   4.977256  1  1  1
  2   3.952063  -2.661423   4.977915  1  1  1
  2   4.834334   0.013915   4.978676  1  1  1
  2   4.584665   1.414134   4.978557  1  1  1
  2   2.966155   3.713960   4.979402  1  1  1
  2   1.744391   4.429770   4.979485  1  1  1
  2  -1.056472   4.669096   4.977148  1  1  1
  2  -2.380694   4.145826   4.976956  1  1  1
  2  -4.262607   2.050891   4.979008  1  1  1
  2  -4.689693   0.701183   4.979913  1  1  1
  2  -4.298642  -2.079044   4.980489  1  1  1
  2  -3.490525  -3.243158   4.978564  1  1  1
  2  -4.564167  -1.414476   6.199829  1  1  1
  2  -2.972396  -3.732187   6.200600  1  1  1
  2  -1.746574  -4.453464   6.200453  1  1  1
  2   1.067949  -4.618546   6.199732  1  1  1
  2   2.380638  -4.082811   6.199517  1  1  1
  2   4.316657  -2.048620   6.201817  1  1  1
  2   4.756248  -0.699158   6.203368  1  1  1
  2   4.304898   2.071792   6.201607  1  1  1
  2   3.490765   3.231234   6.200870  1  1  1
  2   1.064602   4.643188   6.200447  1  1  1
  2  -0.347135   4.767203   6.200796  1  1  1
  2  -2.961991   3.726665   6.203622  1  1  1
  2  -3.907433   2.665792   6.203122  1  1  1
  2  -4.766964  -0.010876   6.199329  1  1  1
  2  -4.302081  -2.078336   7.421498  1  1  1
  2  -3.493609  -3.242306   7.423062  1  1  1
  2  -1.055363  -4.641627   7.425539  1  1  1
  2   0.362577  -4.726232   7.424381  1  1  1
  2   2.977406  -3.691953   7.420371  1  1  1
  2   3.950899  -2.663674   7.422075  1  1  1
  2   4.789678   0.013646   7.426308  1  1  1
  2   4.568335   1.412036   7.425296  1  1  1
  2   2.969952   3.718869   7.423434  1  1  1
  2   1.746028   4.430340   7.422538  1  1  1
  2  -1.049897   4.651849   7.425724  1  1  1
  2  -2.363347   4.118835   7.427310  1  1  1
  2  -4.269548   2.047356   7.423206  1  1  1
  2  -4.714249   0.701124   7.421014  1  1  1
  2  -3.909898   2.663232   8.646297  1  1  1
  2  -4.806668  -0.010032   8.644311  1  1  1
  2  -4.587646  -1.418398   8.644463  1  1  1
  2  -2.967163  -3.722368   8.646813  1  1  1
  2  -1.731699  -4.417017   8.648892  1  1  1
  2   1.073557  -4.617162   8.644318  1  1  1
  2   2.397994  -4.108272   8.642808  1  1  1
  2   4.316880  -2.054837   8.644899  1  1  1
  2   4.731652  -0.701082   8.646490  1  1  1
  2   4.294558   2.070054   8.647591  1  1  1
  2   3.492158   3.237173   8.647648  1  1  1
  2   1.072761   4.667706   8.644591  1  1  1
  2  -0.342745   4.766524   8.645644  1  1  1
  2  -2.940214   3.695635   8.647878  1  1  1
  1  -1.034753   2.218030   5.641010  1  1  1
  1  -2.240603  -0.915010   3.198425  1  1  1
  1   0.327352   2.492160   0.370867  1  1  1
  1  -2.452441  -0.172535  -0.713681  1  1  1
  1   2.492050  -0.269455   4.730235  1  1  1
  1  -0.330009  -2.456262   6.097344  1  1  1
  1   0.957632  -2.278866   0.398557  1  1  1
%endblock Zmatrix 

LatticeConstant       97.8061228574  Ang

%block LatticeParameters
  1.0 1.0 0.1 90. 90. 90.   #14.8921728
%endblock LatticeParameters 

WriteCoorXmol     True
WriteForces .true.
WriteMullikenPop     1

%block ProjectedDensityOfStates
   -24.00  15.00  0.100  1000  eV
%endblock ProjectedDensityOfStates 

WriteCoorStep      .true.
WriteForces        .true.
WriteMDHistory     .true.


MD.UseSaveXV       T
MD.NoseMass  10.0 Ry*fs**2
MD.TypeOfRun         Nose
MD.InitialTemperature 30 K
MD.TargetTemperature  30 K
MD.Initial.Time.Step      1
MD.Final.Time.Step        25
MD.Length.Time.Step       1.0 fs
