NumberOfAtoms 27
NumberOfSpecies 1
%block ChemicalSpeciesLabel
 1  6  C
%endblock ChemicalSpeciesLabel
%block Zmatrix
cartesian
 1    0     0      0                 1  1  1
 1    -2     -2      -2                 1  1  1
 1    -2     -2      0                 1  1  1
 1    -2     -2      2                 1  1  1
 1    -2     0      -2                 1  1  1
 1    -2     0      0                 1  1  1
 1    -2     0      2                 1  1  1
 1    -2     2      -2                 1  1  1
 1    -2     2      0                 1  1  1
 1    -2     2      2                 1  1  1
 1    0     -2      -2                 1  1  1
 1    0     -2      0                 1  1  1
 1    0     -2      2                 1  1  1
 1    0     0      -2                 1  1  1
 1    0     0      2                 1  1  1
 1    0     2      -2                 1  1  1
 1    0     2      0                 1  1  1
 1    0     2      2                 1  1  1
 1    2     -2      -2                 1  1  1
 1    2     -2      0                 1  1  1
 1    2     -2      2                 1  1  1
 1    2     0      -2                 1  1  1
 1    2     0      0                 1  1  1
 1    2     0      2                 1  1  1
 1    2     2      -2                 1  1  1
 1    2     2      0                 1  1  1
 1    2     2      2                 1  1  1
%endblock Zmatrix

