SystemName          nanotube (7,7)
SystemLabel         C112
NumberOfAtoms       112
NumberOfSpecies     1
WriteMullikenPop    1 
%block ChemicalSpeciesLabel
 1  6  C      # Species index, atomic number, species label
%endblock ChemicalSpeciesLabel 
#PAO.BasisSize  DZP
PAO.SplitNorm  0.59
PAO.EnergyShift  0.05 eV
MeshCutoff       200.0 Ry
#kgrid_cutoff     5.0 Bohr

%block kgrid_Monkhorst_Pack
  1  0  0   0.5
  0  1  0   0.5
  0  0  32  0.5
%endblock kgrid_Monkhorst_Pack

#%block PAO.Basis
#C     2      0.0
# n=2    0    2   P      1
#   8.030037   2.953824
#   1.000000   1.000000
# n=2    1    2   P      1
#  10.056301   3.183912
#   1.000000   1.000000
#Li    1      0.0
# n=2    0    2   P      1
#   9.500085   6.863842
#   1.000000   1.000000
#%endblock PAO.Basis

Spinpolarized  true

MaxSCFIterations       150
Diag.ParallelOverK   .true.
SolutionMethod         diagon
NetCharge     0.00
DM.NumberPulay    4
DM.MixingWeight   0.3
DM.UseSaveDM      .true.
NeglNonOverlapInt False
AtomicCoordinatesFormat  NotScaledCartesianAng
#AtomicCoordinatesAndAtomicSpecies < nano.xyz

XC.functional=LDA
XC.authors=CA
ZM.UnitsLength = Ang

%block Zmatrix
cartesian
  1  -1.069675  -4.627200   0.064232  1  1  1
  1   0.343826  -4.736714   0.064213  1  1  1
  1   2.966286  -3.727281   0.064142  1  1  1
  1  -4.742033   0.708602   0.065217  1  1  1
  1  -3.506646  -3.230866   0.065124  1  1  1
  1  -4.313746  -2.065726   0.065256  1  1  1
  1   3.940797  -2.697564   0.064009  1  1  1
  1  -4.314298   2.060204   0.065117  1  1  1
  1   4.787360  -0.020655   0.064329  1  1  1
  1  -2.376021   4.091420   0.065409  1  1  1
  1   4.574821   1.380941   0.065067  1  1  1
  1   2.978871   3.689181   0.065629  1  1  1
  1  -1.052450   4.595889   0.065615  1  1  1
  1   1.747462   4.388242   0.066125  1  1  1
  1  -4.794154  -0.002631   1.287951  1  1  1
  1  -0.346800   4.704855   1.287060  1  1  1
  1   1.066447   4.600898   1.287308  1  1  1
  1   1.049823  -4.632343   1.286781  1  1  1
  1  -4.578068  -1.403812   1.287994  1  1  1
  1   2.372625  -4.122845   1.286741  1  1  1
  1  -2.969107   3.697438   1.288301  1  1  1
  1  -1.750284  -4.416018   1.287005  1  1  1
  1  -2.980034  -3.711560   1.287598  1  1  1
  1  -3.948717   2.672536   1.288140  1  1  1
  1   3.503901   3.208794   1.288353  1  1  1
  1   4.729299  -0.731234   1.287136  1  1  1
  1   4.302414  -2.083095   1.286942  1  1  1
  1   4.310178   2.042937   1.288220  1  1  1
  1   1.753006   4.405685   2.507788  1  1  1
  1  -1.054291   4.611802   2.507838  1  1  1
  1  -4.309956   2.059310   2.510516  1  1  1
  1   2.981283   3.697650   2.509384  1  1  1
  1  -2.375716   4.097577   2.509565  1  1  1
  1  -1.069313  -4.626884   2.509411  1  1  1
  1  -4.740222   0.708398   2.510374  1  1  1
  1   4.570420   1.380695   2.510496  1  1  1
  1  -4.313326  -2.065752   2.510320  1  1  1
  1   0.344386  -4.735897   2.509146  1  1  1
  1   2.965688  -3.727059   2.509347  1  1  1
  1   4.784814  -0.020836   2.509912  1  1  1
  1  -3.506363  -3.231102   2.510036  1  1  1
  1   3.939922  -2.697073   2.509129  1  1  1
  1  -0.346548   4.738499   3.729850  1  1  1
  1   1.072759   4.636273   3.729827  1  1  1
  1  -2.966531   3.699687   3.733037  1  1  1
  1   3.503290   3.213717   3.732927  1  1  1
  1  -4.793796  -0.003191   3.732999  1  1  1
  1  -3.942713   2.671521   3.733302  1  1  1
  1  -2.980579  -3.712564   3.732668  1  1  1
  1   1.049941  -4.633010   3.732188  1  1  1
  1  -4.578943  -1.404383   3.733000  1  1  1
  1   2.372805  -4.123493   3.731986  1  1  1
  1   4.304332   2.043802   3.733336  1  1  1
  1  -1.750576  -4.417008   3.732003  1  1  1
  1   4.302932  -2.083758   3.732043  1  1  1
  1   4.728701  -0.731513   3.732295  1  1  1
  1  -3.506333  -3.230937   4.955585  1  1  1
  1  -4.313377  -2.065790   4.955831  1  1  1
  1   2.965785  -3.727156   4.954775  1  1  1
  1  -1.069447  -4.626757   4.954970  1  1  1
  1  -4.739038   0.708135   4.955712  1  1  1
  1   3.940054  -2.697504   4.954599  1  1  1
  1  -4.306297   2.058123   4.955870  1  1  1
  1   0.344031  -4.735848   4.954752  1  1  1
  1   4.566059   1.380706   4.955733  1  1  1
  1   4.783152  -0.020288   4.955098  1  1  1
  1  -2.374312   4.099655   4.955969  1  1  1
  1   2.981336   3.701885   4.956131  1  1  1
  1  -1.056772   4.633548   4.956125  1  1  1
  1   1.760036   4.429936   4.956394  1  1  1
  1  -2.980523  -3.712358   6.178326  1  1  1
  1  -1.750686  -4.417174   6.177777  1  1  1
  1  -4.579271  -1.404382   6.178695  1  1  1
  1   2.373096  -4.123536   6.177677  1  1  1
  1   1.050101  -4.632936   6.177571  1  1  1
  1   4.303200  -2.083787   6.177334  1  1  1
  1  -4.794456  -0.002934   6.178646  1  1  1
  1   4.728889  -0.731528   6.177555  1  1  1
  1  -3.943123   2.671794   6.178718  1  1  1
  1   4.304425   2.043967   6.178582  1  1  1
  1  -2.966541   3.699794   6.179233  1  1  1
  1   3.503211   3.213842   6.179370  1  1  1
  1  -0.347073   4.738666   6.183054  1  1  1
  1   1.072533   4.636799   6.183217  1  1  1
  1  -3.505606  -3.230306   7.400869  1  1  1
  1   2.965157  -3.726112   7.400007  1  1  1
  1  -4.312602  -2.065318   7.400967  1  1  1
  1  -1.069086  -4.625840   7.400004  1  1  1
  1   3.939332  -2.696350   7.399866  1  1  1
  1   0.344312  -4.734985   7.400044  1  1  1
  1  -4.739723   0.708215   7.400948  1  1  1
  1   4.784197  -0.020801   7.399832  1  1  1
  1  -4.309239   2.058942   7.400781  1  1  1
  1   4.569599   1.380624   7.400531  1  1  1
  1  -2.375255   4.096834   7.402246  1  1  1
  1   2.980592   3.697420   7.402427  1  1  1
  1  -1.053952   4.611177   7.404116  1  1  1
  1   1.752361   4.405476   7.404545  1  1  1
  1  -1.750608  -4.416591   8.622836  1  1  1
  1  -4.579094  -1.404121   8.623843  1  1  1
  1  -2.980577  -3.712192   8.623376  1  1  1
  1   2.372776  -4.123332   8.622889  1  1  1
  1   1.049908  -4.633093   8.622824  1  1  1
  1  -4.795025  -0.003042   8.623761  1  1  1
  1   4.303359  -2.083332   8.622473  1  1  1
  1   4.730485  -0.731559   8.622714  1  1  1
  1  -3.948873   2.673028   8.623566  1  1  1
  1   4.310725   2.043589   8.623465  1  1  1
  1  -2.969641   3.697897   8.623688  1  1  1
  1   3.504766   3.209508   8.623633  1  1  1
  1  -0.346408   4.706433   8.625480  1  1  1
  1   1.066587   4.602492   8.625759  1  1  1
%endblock Zmatrix 

LatticeConstant       97.8061228574 Ang

%block LatticeParameters
  1.0 1.0 0.1 90. 90. 90.   #14.8921728
%endblock LatticeParameters 

WriteCoorXmol     True
WriteForces .true.
WriteMullikenPop     1
SaveRho                  .true. 


SaveBaderCharge   .true.

WriteHirshfeldPop   .true.

WriteVoronoiPop  .true.

%block ProjectedDensityOfStates
   -24.00  15.00  0.100  1000  eV
%endblock ProjectedDensityOfStates 
MD.TypeOfRun           cg               # Type of dynamics: Conjugate gradients
MD.NumCGsteps          320              # number of CG steps
MD.MaxCGDispl          0.15 Ang
MD.MaxForceTol         0.04 eV/Ang
MD.UseSaveXV           yes
MD.VariableCell        .false.
