SystemName          nanotube (7,7)
SystemLabel         C112
NumberOfAtoms       122
NumberOfSpecies     2
WriteMullikenPop    1 
%block ChemicalSpeciesLabel
 1  3  Li      # Species index, atomic number, species label
 2  6  C
%endblock ChemicalSpeciesLabel 
#PAO.BasisSize  DZP
PAO.EnergyShift  0.05 eV
PAO.SplitNorm  0.59
MeshCutoff       200.0 Ry
#kgrid_cutoff     5.0 Bohr

%block kgrid_Monkhorst_Pack
  1  0  0   0.0
  0  1  0   0.0
  0  0  1   0.0
%endblock kgrid_Monkhorst_Pack

Spinpolarized false # true

MaxSCFIterations       150
#Diag.ParallelOverK   .true.
SolutionMethod         diagon
NetCharge     0.00
DM.NumberPulay    4
DM.MixingWeight   0.3
DM.UseSaveDM      .true.
NeglNonOverlapInt False
AtomicCoordinatesFormat  NotScaledCartesianAng

XC.functional=LDA
XC.authors=CA
ZM.UnitsLength = Ang

%block Zmatrix
cartesian
  1   0.819654  -2.128128   7.384434  1  1  1
  2   4.992718   0.044603   0.072012  1  1  1
  2  -3.702769  -3.354831   0.068843  1  1  1
  2   3.947616  -2.558552   0.067732  1  1  1
  2  -1.152618  -4.528763   0.065717  1  1  1
  2  -4.560603  -2.226978   0.070279  1  1  1
  2  -4.353215   1.851701   0.065621  1  1  1
  2  -2.288944   3.766233   0.070437  1  1  1
  2   4.828723   1.452243   0.072734  1  1  1
  2  -4.897795   0.544503   0.064724  1  1  1
  2   2.900421  -3.515060   0.070274  1  1  1
  2  -0.961588   4.277523   0.071504  1  1  1
  2   3.147691   3.683120   0.068121  1  1  1
  2   0.266000  -4.525870   0.069169  1  1  1
  2   1.855200   4.262043   0.068243  1  1  1
  2   4.905135  -0.667395   1.290854  1  1  1
  2   4.382493  -1.991795   1.290791  1  1  1
  2   3.709177   3.249218   1.291435  1  1  1
  2  -1.857320  -4.413408   1.288029  1  1  1
  2  -2.899182   3.392181   1.292102  1  1  1
  2  -3.944863   2.431827   1.289571  1  1  1
  2  -3.147621  -3.809836   1.288021  1  1  1
  2   4.554726   2.113567   1.293033  1  1  1
  2   1.161499   4.409959   1.292084  1  1  1
  2  -0.258663   4.411226   1.293519  1  1  1
  2   2.292682  -3.888863   1.292776  1  1  1
  2   0.967715  -4.395333   1.292370  1  1  1
  2  -5.004554  -0.156906   1.288201  1  1  1
  2  -4.824652  -1.560998   1.289470  1  1  1
  1  -0.819672   1.937901   1.244299  1  1  1
  2  -4.389894   1.870272   2.511197  1  1  1
  2   4.989262   0.044097   2.516896  1  1  1
  2   3.169546   3.721877   2.512959  1  1  1
  2   1.870222   4.303707   2.513236  1  1  1
  2  -1.153535  -4.556405   2.512896  1  1  1
  2  -2.281976   3.752304   2.517709  1  1  1
  2   4.809493   1.449712   2.515812  1  1  1
  2  -3.699301  -3.352188   2.513007  1  1  1
  2   3.967898  -2.578522   2.514852  1  1  1
  2  -0.957325   4.263330   2.518684  1  1  1
  2  -4.938743   0.556819   2.510030  1  1  1
  2   0.268286  -4.534651   2.512888  1  1  1
  2  -4.546517  -2.215898   2.512330  1  1  1
  2   2.905962  -3.524162   2.514148  1  1  1
  1  -1.452907  -2.132755   2.109847  1  1  1
  1   2.526701  -0.611831   2.171034  1  1  1
  2  -4.832353  -1.557888   3.733027  1  1  1
  2  -2.893479   3.378388   3.737878  1  1  1
  2  -3.136306  -3.792190   3.736653  1  1  1
  2   2.293530  -3.891825   3.735097  1  1  1
  2   0.969178  -4.397894   3.734141  1  1  1
  2   4.885980  -0.663291   3.739836  1  1  1
  2   4.556224   2.121828   3.736261  1  1  1
  2  -3.974351   2.455492   3.736632  1  1  1
  2  -5.047918  -0.153391   3.733970  1  1  1
  2  -1.848272  -4.388107   3.737871  1  1  1
  2   3.738369   3.283735   3.737236  1  1  1
  2  -0.252845   4.399249   3.738872  1  1  1
  2   4.361000  -1.981451   3.740263  1  1  1
  2   1.167901   4.450103   3.738671  1  1  1
  1  -2.698661   0.383269   3.656909  1  1  1
  1   1.639492   2.072915   3.648382  1  1  1
  1   0.149693  -0.477566   4.548454  1  1  1
  2  -4.568397  -2.225283   4.953107  1  1  1
  2  -3.703013  -3.349210   4.954240  1  1  1
  2   0.270228  -4.531385   4.957518  1  1  1
  2  -1.146645  -4.515307   4.958741  1  1  1
  2   2.901373  -3.521708   4.958516  1  1  1
  2   4.828200   1.458037   4.956654  1  1  1
  2  -2.279257   3.749266   4.956977  1  1  1
  2   4.984493   0.048785   4.957831  1  1  1
  2  -0.955871   4.260439   4.957945  1  1  1
  2   3.934803  -2.553163   4.961461  1  1  1
  2  -4.923660   0.551567   4.961530  1  1  1
  2  -4.378695   1.864170   4.962507  1  1  1
  2   3.163336   3.710955   4.964265  1  1  1
  2   1.866618   4.293921   4.964986  1  1  1
  1  -2.449149  -1.366948   6.545885  1  1  1
  1   2.694291   0.631742   6.541841  1  1  1
  2  -1.845680  -4.360698   6.180032  1  1  1
  2   0.973812  -4.417711   6.178540  1  1  1
  2  -3.147242  -3.797669   6.180218  1  1  1
  2  -4.865057  -1.576365   6.180708  1  1  1
  2   2.301014  -3.907585   6.179610  1  1  1
  2   4.338826  -1.963357   6.182670  1  1  1
  2  -2.898101   3.394754   6.182251  1  1  1
  2   4.892172  -0.658599   6.183602  1  1  1
  2  -5.005369  -0.162865   6.182290  1  1  1
  2  -3.939758   2.431094   6.183361  1  1  1
  2  -0.260161   4.415396   6.183689  1  1  1
  2   4.591455   2.131935   6.183358  1  1  1
  2   3.714903   3.250195   6.185454  1  1  1
  2   1.159635   4.410498   6.185864  1  1  1
  1  -0.800761   1.921602   6.662168  1  1  1
  2   0.269842  -4.543751   7.403168  1  1  1
  2  -1.149502  -4.509276   7.402193  1  1  1
  2   2.906452  -3.527493   7.404195  1  1  1
  2  -4.596880  -2.243813   7.404778  1  1  1
  2  -4.892868   0.541379   7.404038  1  1  1
  2  -2.295968   3.781491   7.405003  1  1  1
  2  -3.721649  -3.368103   7.403893  1  1  1
  2  -4.348831   1.848861   7.404515  1  1  1
  2  -0.966097   4.294402   7.405980  1  1  1
  2   3.931283  -2.546397   7.405033  1  1  1
  2   1.855676   4.261966   7.407431  1  1  1
  2   3.148001   3.682106   7.407492  1  1  1
  2   5.009813   0.048550   7.406702  1  1  1
  2   4.861351   1.464608   7.407606  1  1  1
  2  -4.998140  -0.163491   8.626517  1  1  1
  2  -1.849458  -4.370507   8.623344  1  1  1
  2  -4.839364  -1.571062   8.628034  1  1  1
  2  -3.144047  -3.793886   8.624389  1  1  1
  2  -3.934231   2.429260   8.626305  1  1  1
  2   0.969761  -4.407606   8.629291  1  1  1
  2  -2.893551   3.389771   8.626860  1  1  1
  2   4.348654  -1.967756   8.626214  1  1  1
  2   2.297493  -3.898291   8.630128  1  1  1
  2  -0.261221   4.406533   8.628236  1  1  1
  2   4.891001  -0.658604   8.627539  1  1  1
  2   1.155486   4.402082   8.628767  1  1  1
  2   3.710744   3.242306   8.629700  1  1  1
  2   4.573012   2.118168   8.630889  1  1  1
%endblock Zmatrix 

LatticeConstant       97.8061228574  Ang

%block LatticeParameters
  1.0 1.0 0.1 90. 90. 90.   #14.8921728
%endblock LatticeParameters 

WriteCoorXmol     True
WriteForces .true.
WriteMullikenPop     1

%block ProjectedDensityOfStates
   -24.00  15.00  0.100  1000  eV
%endblock ProjectedDensityOfStates 

WriteCoorStep      .true.
WriteForces        .true.
WriteMDHistory     .true.


MD.UseSaveXV       T
MD.NoseMass  10.0 Ry*fs**2
MD.TypeOfRun         Nose
MD.InitialTemperature 300 K
MD.TargetTemperature  300 K
MD.Initial.Time.Step      1
MD.Final.Time.Step        2500
MD.Length.Time.Step       1.0 fs
