SystemName          nanotube (7,7)
SystemLabel         C112
NumberOfAtoms       116
NumberOfSpecies     2
WriteMullikenPop    1 
%block ChemicalSpeciesLabel
 1  6  C      # Species index, atomic number, species label
 2  3  Li
%endblock ChemicalSpeciesLabel 
#PAO.BasisSize  DZP
PAO.EnergyShift  0.05 eV
PAO.SplitNorm  0.59
MeshCutoff       200.0 Ry
#kgrid_cutoff     5.0 Bohr

%block kgrid_Monkhorst_Pack
  1  0  0   0.5
  0  1  0   0.5
  0  0  32  0.5
%endblock kgrid_Monkhorst_Pack

Spinpolarized  true

MaxSCFIterations       150
Diag.ParallelOverK   .true.
SolutionMethod         diagon
NetCharge     0.00
DM.NumberPulay    4
DM.MixingWeight   0.3
DM.UseSaveDM      .true.
NeglNonOverlapInt False
AtomicCoordinatesFormat  NotScaledCartesianAng
#AtomicCoordinatesAndAtomicSpecies < nano.xyz

XC.functional=LDA
XC.authors=CA
ZM.UnitsLength = Ang

%block Zmatrix
cartesian
  1   3.143052   3.655652   0.051032  1  1  1
  1  -1.258123  -4.589046   0.052654  1  1  1
  1   4.638035   1.276253   0.051296  1  1  1
  1   4.788750  -0.131867   0.051692  1  1  1
  1   3.821340  -2.768340   0.050611  1  1  1
  1   0.153280  -4.707974   0.050395  1  1  1
  1  -3.667830  -3.148721   0.052307  1  1  1
  1   1.932550   4.396121   0.051096  1  1  1
  1  -4.430958  -1.955735   0.052850  1  1  1
  1   2.804830  -3.755918   0.049412  1  1  1
  1  -0.870100   4.642579   0.052453  1  1  1
  1  -4.702081   0.838735   0.053730  1  1  1
  1  -2.197719   4.146387   0.053553  1  1  1
  1  -4.200718   2.164989   0.054172  1  1  1
  2   0.851104  -1.883684   2.493163  1  1  1
  1  -3.155040  -3.642529   1.275052  1  1  1
  1   4.404848   1.949555   1.273757  1  1  1
  1   2.194743  -4.126213   1.272160  1  1  1
  1  -4.662894  -1.281379   1.275173  1  1  1
  1  -4.797302   0.128419   1.274498  1  1  1
  1   3.650114   3.150920   1.274785  1  1  1
  1  -3.804196   2.762188   1.274853  1  1  1
  1   4.214901  -2.169476   1.273042  1  1  1
  1  -1.938684  -4.366329   1.274031  1  1  1
  1   4.704628  -0.840278   1.273286  1  1  1
  1   1.251396   4.619580   1.275547  1  1  1
  1  -2.797194   3.759812   1.276182  1  1  1
  1  -0.163303   4.742026   1.275904  1  1  1
  1   0.859627  -4.603433   1.273104  1  1  1
  2   1.151666   2.077971   1.690648  1  1  1
  1   3.825358  -2.764848   2.497443  1  1  1
  1   2.802093  -3.747349   2.497717  1  1  1
  1  -3.668987  -3.149181   2.498398  1  1  1
  1   3.142893   3.657352   2.499167  1  1  1
  1  -4.431298  -1.956782   2.498011  1  1  1
  1  -1.260935  -4.578034   2.498669  1  1  1
  1  -4.695590   0.833377   2.497863  1  1  1
  1   4.644743   1.275893   2.495432  1  1  1
  1   0.151187  -4.692150   2.498119  1  1  1
  1  -2.192361   4.143971   2.498663  1  1  1
  1  -4.188623   2.157232   2.497821  1  1  1
  1   1.932680   4.400357   2.501796  1  1  1
  1  -0.867368   4.644046   2.501143  1  1  1
  1   4.797341  -0.132914   2.496019  1  1  1
  1   2.192550  -4.121144   3.723569  1  1  1
  1  -1.941083  -4.367444   3.722631  1  1  1
  1   4.217833  -2.170868   3.721951  1  1  1
  1  -3.159239  -3.646781   3.722211  1  1  1
  1   4.708048  -0.841782   3.719776  1  1  1
  1   0.858020  -4.598391   3.723854  1  1  1
  1   4.413161   1.955665   3.719181  1  1  1
  1   3.653046   3.155193   3.722580  1  1  1
  1  -4.664706  -1.285427   3.722603  1  1  1
  1  -4.794637   0.125287   3.722584  1  1  1
  1   1.251964   4.619112   3.725416  1  1  1
  1  -0.158605   4.741570   3.724175  1  1  1
  1  -3.790078   2.749667   3.724045  1  1  1
  1  -2.784852   3.749924   3.724149  1  1  1
  2   2.157804   0.850778   4.456858  1  1  1
  1  -1.260995  -4.587278   4.944853  1  1  1
  1  -3.673872  -3.154763   4.945692  1  1  1
  1   3.823084  -2.767255   4.944655  1  1  1
  1   2.801931  -3.749055   4.946483  1  1  1
  1   3.143117   3.658456   4.946103  1  1  1
  1   0.150564  -4.700480   4.945864  1  1  1
  1  -4.436025  -1.960653   4.946372  1  1  1
  1   1.931685   4.395350   4.946395  1  1  1
  1  -2.187361   4.137036   4.948410  1  1  1
  1  -4.186264   2.153399   4.948855  1  1  1
  1   4.645370   1.279387   4.945756  1  1  1
  1  -0.862939   4.637468   4.947659  1  1  1
  1  -4.696829   0.831586   4.947467  1  1  1
  1   4.790708  -0.133732   4.944963  1  1  1
  1   1.253803   4.616241   6.169157  1  1  1
  1   2.193597  -4.129644   6.166627  1  1  1
  1  -0.157753   4.735302   6.169854  1  1  1
  1   4.700122  -0.841001   6.168665  1  1  1
  1   0.860575  -4.610592   6.166560  1  1  1
  1  -4.798742   0.126331   6.170627  1  1  1
  1  -4.666932  -1.284406   6.168910  1  1  1
  1  -3.798235   2.754355   6.170285  1  1  1
  1  -1.941629  -4.375940   6.167457  1  1  1
  1  -3.159611  -3.651062   6.167630  1  1  1
  1  -2.790398   3.750442   6.170057  1  1  1
  1   3.652464   3.156314   6.169045  1  1  1
  1   4.409462   1.956532   6.170414  1  1  1
  1   4.211168  -2.170628   6.167392  1  1  1
  2  -1.797995   1.030851   3.490882  1  1  1
  1   4.789331  -0.130841   7.389981  1  1  1
  1   0.153653  -4.710082   7.388395  1  1  1
  1   4.641652   1.278873   7.390707  1  1  1
  1  -0.865889   4.635815   7.391152  1  1  1
  1   1.932352   4.394820   7.390702  1  1  1
  1  -1.258707  -4.592505   7.388636  1  1  1
  1  -4.432129  -1.957697   7.391095  1  1  1
  1  -4.701880   0.837007   7.391049  1  1  1
  1   3.142325   3.656872   7.391007  1  1  1
  1   3.817253  -2.768079   7.388337  1  1  1
  1  -2.192797   4.139048   7.392150  1  1  1
  1  -3.670275  -3.152335   7.389667  1  1  1
  1  -4.197143   2.161151   7.391627  1  1  1
  1   2.801778  -3.756364   7.388864  1  1  1
  1   4.405413   1.953136   8.612092  1  1  1
  1   4.699674  -0.840203   8.610496  1  1  1
  1   2.195832  -4.135906   8.610159  1  1  1
  1   4.209832  -2.169920   8.609384  1  1  1
  1   3.651393   3.152551   8.610756  1  1  1
  1  -1.938427  -4.373543   8.610932  1  1  1
  1   1.251446   4.617508   8.611390  1  1  1
  1   0.862563  -4.616125   8.610393  1  1  1
  1  -3.154709  -3.646278   8.611677  1  1  1
  1  -0.160522   4.739606   8.612448  1  1  1
  1  -4.663504  -1.280268   8.612162  1  1  1
  1  -4.799489   0.130123   8.613135  1  1  1
  1  -3.808342   2.762147   8.612664  1  1  1
  1  -2.798273   3.757105   8.613287  1  1  1
%endblock Zmatrix 

LatticeConstant       97.8061228574  Ang

%block LatticeParameters
  1.0 1.0 0.1 90. 90. 90.   #14.8921728
%endblock LatticeParameters 

WriteCoorXmol     True
WriteForces .true.
WriteMullikenPop     1
#SaveDeltaRho                  .true. 
%block ProjectedDensityOfStates
   -24.00  15.00  0.100  1000  eV
%endblock ProjectedDensityOfStates 
MD.TypeOfRun           cg               # Type of dynamics: Conjugate gradients
MD.NumCGsteps          320              # number of CG steps
MD.MaxCGDispl          0.15 Ang
MD.MaxForceTol         0.04 eV/Ang
MD.UseSaveXV           yes
MD.VariableCell        .false.
