model 
 1.0 
  5.0  0.0  0.0
  0.0  6.0  0.0
  0.0  0.0  7.0
 H P
 3 1
Direct
     0.50000000    0.70010783    0.40261596
     0.70795820    0.39994616    0.40261596
     0.29204180    0.39994616    0.40261596
     0.50000000    0.50000000    0.50943225
